var x1 binary;
var x2 binary;
var x3 binary;
var x4 binary;
var x5 binary;
var x6 binary;

maximize NumNos: x1 + x2 + x3 + x4 + x5 + x6;

subject to

Arco15: x1 + x5 <=1;
Arco16: x1 + x6 <=1;
Arco25: x2 + x5 <=1;
Arco26: x2 + x6 <=1;
Arco35: x3 + x5 <=1;
Arco46: x4 + x6 <=1;

solve;
display NumNos, x1, x2, x3, x4, x5, x6;